words_hard_train/2024.qaiger
aag 100 16 0 1 84
2
4
8
16
26
36
44
58
66
98
106
126
134
156
164
184
200
6 2 4
10 6 9
12 7 8
14 11 13
18 14 17
20 15 16
22 19 21
24 22 2
28 24 26
30 29 21
32 8 4
34 33 7
38 35 36
40 34 37
42 39 41
46 43 45
48 42 44
50 47 49
52 31 50
54 53 49
56 41 4
60 57 59
62 56 58
64 61 63
68 65 67
70 64 66
72 69 71
74 54 73
76 55 72
78 75 77
80 30 51
82 81 53
84 79 83
86 23 27
88 86 3
90 89 29
92 77 71
94 40 59
96 95 4
100 96 98
102 97 99
104 101 103
108 105 107
110 104 106
112 109 111
114 92 113
116 93 112
118 115 117
120 91 119
122 117 111
124 103 4
128 124 126
130 125 127
132 129 131
136 133 135
138 132 134
140 137 139
142 122 141
144 123 140
146 143 145
148 120 147
150 84 148
152 145 139
154 131 4
158 155 157
160 154 156
162 159 161
166 163 165
168 162 164
170 167 169
172 152 171
174 153 170
176 173 175
178 150 177
180 130 4
182 180 157
186 183 184
188 182 185
190 187 189
192 175 169
194 190 192
196 191 193
198 195 197
200 179 199
i0 2 y2[0]
i1 2 y2[7]
i2 2 y2[1]
i3 1 x1[1]
i4 1 x1[0]
i5 2 y2[2]
i6 1 x1[2]
i7 2 y2[3]
i8 1 x1[3]
i9 2 y2[4]
i10 1 x1[4]
i11 2 y2[5]
i12 1 x1[5]
i13 2 y2[6]
i14 1 x1[6]
i15 1 x1[7]
o0 bv[0]
c
simplified
  >
    add
      abs
        2 y2
      1 x1
    subtract
      2 y1
      2 y1
