words_hard_train/2024.qaiger.qdimacs
p cnf 100 253
a 33 67 8 13 82 53 22 92 0
e 1 2 3 4 5 6 7 9 10 11 12 14 15 16 17 18 19 20 21 23 24 25 26 27 28 29 30 31 32 34 35 36 37 38 39 40 41 42 43 44 45 46 47 48 49 50 51 52 54 55 56 57 58 59 60 61 62 63 64 65 66 68 69 70 71 72 73 74 75 76 77 78 79 80 81 83 84 85 86 87 88 89 90 91 93 94 95 96 97 98 99 100 0
-1 -2 3 0
1 -3 0
2 -3 0
-3 4 5 0
3 -5 0
-4 -5 0
3 -4 6 0
-3 -6 0
4 -6 0
5 6 7 0
-5 -7 0
-6 -7 0
-7 8 9 0
7 -9 0
-8 -9 0
7 -8 10 0
-7 -10 0
8 -10 0
9 10 11 0
-9 -11 0
-10 -11 0
-11 -1 12 0
11 -12 0
1 -12 0
-12 -13 14 0
12 -14 0
13 -14 0
14 10 15 0
-14 -15 0
-10 -15 0
-4 -2 16 0
4 -16 0
2 -16 0
16 3 17 0
-16 -17 0
-3 -17 0
17 -18 19 0
-17 -19 0
18 -19 0
-17 18 20 0
17 -20 0
-18 -20 0
19 20 21 0
-19 -21 0
-20 -21 0
21 22 23 0
-21 -23 0
-22 -23 0
-21 -22 24 0
21 -24 0
22 -24 0
23 24 25 0
-23 -25 0
-24 -25 0
15 -25 26 0
-15 -26 0
25 -26 0
26 24 27 0
-26 -27 0
-24 -27 0
20 -2 28 0
-20 -28 0
2 -28 0
28 29 30 0
-28 -30 0
-29 -30 0
-28 -29 31 0
28 -31 0
29 -31 0
30 31 32 0
-30 -32 0
-31 -32 0
32 33 34 0
-32 -34 0
-33 -34 0
-32 -33 35 0
32 -35 0
33 -35 0
34 35 36 0
-34 -36 0
-35 -36 0
-27 36 37 0
27 -37 0
-36 -37 0
27 -36 38 0
-27 -38 0
36 -38 0
37 38 39 0
-37 -39 0
-38 -39 0
-15 25 40 0
15 -40 0
-25 -40 0
40 26 41 0
-40 -41 0
-26 -41 0
39 41 42 0
-39 -42 0
-41 -42 0
11 13 43 0
-11 -43 0
-13 -43 0
-43 1 44 0
43 -44 0
-1 -44 0
44 14 45 0
-44 -45 0
-14 -45 0
38 35 46 0
-38 -46 0
-35 -46 0
-20 29 47 0
20 -47 0
-29 -47 0
47 -2 48 0
-47 -48 0
2 -48 0
-48 -49 50 0
48 -50 0
49 -50 0
48 49 51 0
-48 -51 0
-49 -51 0
50 51 52 0
-50 -52 0
-51 -52 0
52 53 54 0
-52 -54 0
-53 -54 0
-52 -53 55 0
52 -55 0
53 -55 0
54 55 56 0
-54 -56 0
-55 -56 0
-46 56 57 0
46 -57 0
-56 -57 0
46 -56 58 0
-46 -58 0
56 -58 0
57 58 59 0
-57 -59 0
-58 -59 0
45 59 60 0
-45 -60 0
-59 -60 0
58 55 61 0
-58 -61 0
-55 -61 0
51 -2 62 0
-51 -62 0
2 -62 0
-62 -63 64 0
62 -64 0
63 -64 0
62 63 65 0
-62 -65 0
-63 -65 0
64 65 66 0
-64 -66 0
-65 -66 0
66 67 68 0
-66 -68 0
-67 -68 0
-66 -67 69 0
66 -69 0
67 -69 0
68 69 70 0
-68 -70 0
-69 -70 0
-61 70 71 0
61 -71 0
-70 -71 0
61 -70 72 0
-61 -72 0
70 -72 0
71 72 73 0
-71 -73 0
-72 -73 0
-60 73 74 0
60 -74 0
-73 -74 0
-42 -74 75 0
42 -75 0
74 -75 0
72 69 76 0
-72 -76 0
-69 -76 0
65 -2 77 0
-65 -77 0
2 -77 0
77 78 79 0
-77 -79 0
-78 -79 0
-77 -78 80 0
77 -80 0
78 -80 0
79 80 81 0
-79 -81 0
-80 -81 0
81 82 83 0
-81 -83 0
-82 -83 0
-81 -82 84 0
81 -84 0
82 -84 0
83 84 85 0
-83 -85 0
-84 -85 0
-76 85 86 0
76 -86 0
-85 -86 0
76 -85 87 0
-76 -87 0
85 -87 0
86 87 88 0
-86 -88 0
-87 -88 0
-75 88 89 0
75 -89 0
-88 -89 0
-65 -2 90 0
65 -90 0
2 -90 0
-90 78 91 0
90 -91 0
-78 -91 0
91 -92 93 0
-91 -93 0
92 -93 0
-91 92 94 0
91 -94 0
-92 -94 0
93 94 95 0
-93 -95 0
-94 -95 0
87 84 96 0
-87 -96 0
-84 -96 0
-95 -96 97 0
95 -97 0
96 -97 0
95 96 98 0
-95 -98 0
-96 -98 0
97 98 99 0
-97 -99 0
-98 -99 0
89 99 100 0
-89 -100 0
-99 -100 0
100 0
